33D32945 STP File, STP Format Version 1.0

SECTION Comment
Name    "B01"
Creator "hallo"
Remark  "Sparse graph with random weights"
END

SECTION Graph
Nodes 8
Edges 12
E 1 2 1
E 2 3 1
E 3 4 5
E 2 4 4
E 2 5 1
E 5 6 3
E 5 8 6
E 8 7 3
E 6 7 2
E 4 7 3
E 4 5 5
E 6 8 2
END

SECTION Terminals
Terminals 4
T 1
T 3
T 7
T 8
END

EOF